12 40 6 10
20 11 19 14 17 3 6 13 10 16 4 17 19 18 9 1 20 16 17 4 1 1 19 8 9 18 4 17 7 18 10 11 5 7 19 16 11 18 15 9 
8.96 7.55 13.36 13.29 14.74 1.86 6.54 6.13 4.21 6.95 11.83 12.73 10.31 12.33 14.32 10.63 12.49 6.68 15.03 11.36 3.99 11.12 7.07 12.56 13.62 3.24 9.91 3.82 6.01 11.38 7.88 13.74 8.04 8.07 7.45 10.84 9.46 5.69 0.19 6.26 
5.54 2.37 3.85 8.31 5.6 15.91 5.28 10.97 1.83 2.01 12.99 5.34 13.31 8.34 4.69 12.04 10.41 14.45 12.17 9.34 15.22 4.32 13.74 7.99 1.83 10.45 8.32 7.26 2.56 10.81 13.98 9.1 11.73 15.66 1.51 11.25 15.45 10.04 14.54 4.68 
10.55 10.27 14.57 0.12 2.68 11.34 0.84 11.67 1.6 12.63 1.05 9.32 4.09 12.27 5.48 10.22 2.08 13.71 8.68 6.57 11.98 8.73 4.99 12.63 6.97 8.15 8.03 13.57 6.35 7.23 13.49 2.78 10.63 14.39 2.51 4.22 9.08 4.99 14.71 4.12 
10.06 6.38 9.27 11.23 13.42 15.48 6.37 0.11 0.32 2.35 13.41 15 15.99 10.52 4.49 14.76 6.83 11.96 0.7 10.31 12.9 9.25 14.6 11.21 10.83 11.58 3.04 12.67 12.9 5.38 6.82 13.29 8.1 0.93 12.42 0.01 13.11 12.62 14.83 6.98 
13.34 4.65 12.73 12.24 2.59 6.95 1.03 3.02 0.02 7.31 1.09 0.7 4.57 3.66 9.32 1.95 14.45 0.67 2.61 14.49 13.95 13.84 10.24 13.05 0.82 0.5 15.67 4.31 8.65 10.57 5.33 5.2 14.03 9.65 11.36 9.09 6.03 3.83 7.38 9.04 
5.48 12.99 1.28 11.66 9.94 3.74 12.61 11.49 13.78 12.19 12.35 9.23 11.45 1.94 14.93 12.25 0.96 12.43 5.35 15.93 12.13 1.03 15.04 15.86 0.75 6.35 2.31 0.05 6.99 15.74 10.25 3.44 11.22 13.76 14.22 8.84 8.44 6.76 7.91 4.66 
8 8 8 8 8 8 8 8 8 8 8 8 8 8 8 8 8 8 8 8 8 8 8 8 8 8 8 8 8 8 8 8 8 8 8 8 8 8 8 8 
14.49 10.75 14.17 8.5 11.17 11.95 9.18 13.79 2.93 15.63 2.93 8.17 15.87 5.63 5.9 4.87 2.69 13.75 4.82 6.34 4.4 10.49 2.4 11.09 0.6 9.87 3.72 15.47 11.88 0.81 5.97 14.73 4.26 1.86 8.26 5.61 3.71 8.62 9.66 8.7 
12.85 0.65 5.47 12.06 7.3 9.76 11.36 12.18 14.5 6.36 2.3 5.74 8.82 13.48 3.89 4.6 0.26 0.76 8.29 10.83 9.8 9.75 8.14 1.09 14.85 12.71 14.92 9.08 4.19 12.06 6.45 7.21 6.79 0.54 12.29 2.63 11.94 13.84 11 8.73 
13.18 14.73 3.33 1.79 6.95 5.07 4.59 8.18 7.63 1.09 6.69 7.3 4.22 3.76 5.79 1.2 15.68 13.35 11.25 1.76 15.78 12.59 9.17 7 13.2 15.26 5.76 13.25 15.6 8.33 3.63 15.75 3.64 9.28 6.1 5.04 13.61 5.88 13.06 15.19 
2.83 10.04 5.65 2.84 12.69 8.76 1.22 8.85 13.65 8.5 14.83 2.38 4.76 4.03 2.69 1.22 4.74 15.3 7.24 5.96 2.4 1.65 3.12 11.96 8.96 10.56 4.76 4.48 8.64 6.7 11.79 15.15 1.56 12.77 3.63 14.95 6.45 10.49 8.68 5.53 
7.37 0.59 12.31 14.45 3.66 0.18 15.35 6.49 5.65 10.22 12.08 4.52 11.11 12.57 2.53 3.26 10.91 4.32 11.9 3.34 11.41 9.41 8.17 1 5.33 13.99 15.05 5.15 5.77 8.77 2.89 15.41 4.13 13.93 9.22 6.27 14.25 1.53 15.24 12.12 
1 1 1 1 1 1 1 1 1 1 1 1 1 1 1 1 1 1 1 1 1 1 1 1 1 1 1 1 1 1 1 1 1 1 1 1 1 1 1 1 
1 1 1 1 1 1 1 1 1 1 1 1 1 1 1 1 1 1 1 1 1 1 1 1 1 1 1 1 1 1 1 1 1 1 1 1 1 1 1 1 
1 1 1 1 1 1 1 1 1 1 1 1 1 1 1 1 1 1 1 1 1 1 1 1 1 1 1 1 1 1 1 1 1 1 1 1 1 1 1 1 
1 1 1 1 1 1 1 1 1 1 1 1 1 1 1 1 1 1 1 1 1 1 1 1 1 1 1 1 1 1 1 1 1 1 1 1 1 1 1 1 
1 1 1 1 1 1 1 1 1 1 1 1 1 1 1 1 1 1 1 1 1 1 1 1 1 1 1 1 1 1 1 1 1 1 1 1 1 1 1 1 
1 1 1 1 1 1 1 1 1 1 1 1 1 1 1 1 1 1 1 1 1 1 1 1 1 1 1 1 1 1 1 1 1 1 1 1 1 1 1 1 
1 1 1 1 1 1 1 1 1 1 1 1 1 1 1 1 1 1 1 1 1 1 1 1 1 1 1 1 1 1 1 1 1 1 1 1 1 1 1 1 
1 1 1 1 1 1 1 1 1 1 1 1 1 1 1 1 1 1 1 1 1 1 1 1 1 1 1 1 1 1 1 1 1 1 1 1 1 1 1 1 
1 1 1 1 1 1 1 1 1 1 1 1 1 1 1 1 1 1 1 1 1 1 1 1 1 1 1 1 1 1 1 1 1 1 1 1 1 1 1 1 
1 1 1 1 1 1 1 1 1 1 1 1 1 1 1 1 1 1 1 1 1 1 1 1 1 1 1 1 1 1 1 1 1 1 1 1 1 1 1 1 
1 1 1 1 1 1 1 1 1 1 1 1 1 1 1 1 1 1 1 1 1 1 1 1 1 1 1 1 1 1 1 1 1 1 1 1 1 1 1 1 
1 1 1 1 1 1 1 1 1 1 1 1 1 1 1 1 1 1 1 1 1 1 1 1 1 1 1 1 1 1 1 1 1 1 1 1 1 1 1 1 
0.01 0.01 0.01 0.01 0.01 0.01 0.01 0.01 0.01 0.01 0.01 0.01 0.01 0.01 0.01 0.01 0.01 0.01 0.01 0.01 0.01 0.01 0.01 0.01 0.01 0.01 0.01 0.01 0.01 0.01 0.01 0.01 0.01 0.01 0.01 0.01 0.01 0.01 0.01 0.01 
0.02 0.02 0.02 0.02 0.02 0.02 0.02 0.02 0.02 0.02 0.02 0.02 0.02 0.02 0.02 0.02 0.02 0.02 0.02 0.02 0.02 0.02 0.02 0.02 0.02 0.02 0.02 0.02 0.02 0.02 0.02 0.02 0.02 0.02 0.02 0.02 0.02 0.02 0.02 0.02 
0.03 0.03 0.03 0.03 0.03 0.03 0.03 0.03 0.03 0.03 0.03 0.03 0.03 0.03 0.03 0.03 0.03 0.03 0.03 0.03 0.03 0.03 0.03 0.03 0.03 0.03 0.03 0.03 0.03 0.03 0.03 0.03 0.03 0.03 0.03 0.03 0.03 0.03 0.03 0.03 
0.04 0.04 0.04 0.04 0.04 0.04 0.04 0.04 0.04 0.04 0.04 0.04 0.04 0.04 0.04 0.04 0.04 0.04 0.04 0.04 0.04 0.04 0.04 0.04 0.04 0.04 0.04 0.04 0.04 0.04 0.04 0.04 0.04 0.04 0.04 0.04 0.04 0.04 0.04 0.04 
0.05 0.05 0.05 0.05 0.05 0.05 0.05 0.05 0.05 0.05 0.05 0.05 0.05 0.05 0.05 0.05 0.05 0.05 0.05 0.05 0.05 0.05 0.05 0.05 0.05 0.05 0.05 0.05 0.05 0.05 0.05 0.05 0.05 0.05 0.05 0.05 0.05 0.05 0.05 0.05 
0.06 0.06 0.06 0.06 0.06 0.06 0.06 0.06 0.06 0.06 0.06 0.06 0.06 0.06 0.06 0.06 0.06 0.06 0.06 0.06 0.06 0.06 0.06 0.06 0.06 0.06 0.06 0.06 0.06 0.06 0.06 0.06 0.06 0.06 0.06 0.06 0.06 0.06 0.06 0.06 
0.07 0.07 0.07 0.07 0.07 0.07 0.07 0.07 0.07 0.07 0.07 0.07 0.07 0.07 0.07 0.07 0.07 0.07 0.07 0.07 0.07 0.07 0.07 0.07 0.07 0.07 0.07 0.07 0.07 0.07 0.07 0.07 0.07 0.07 0.07 0.07 0.07 0.07 0.07 0.07 
0.2 0.2 0.2 0.2 0.2 0.2 0.2 0.2 0.2 0.2 0.2 0.2 0.2 0.2 0.2 0.2 0.2 0.2 0.2 0.2 0.2 0.2 0.2 0.2 0.2 0.2 0.2 0.2 0.2 0.2 0.2 0.2 0.2 0.2 0.2 0.2 0.2 0.2 0.2 0.2 
0.4 0.4 0.4 0.4 0.4 0.4 0.4 0.4 0.4 0.4 0.4 0.4 0.4 0.4 0.4 0.4 0.4 0.4 0.4 0.4 0.4 0.4 0.4 0.4 0.4 0.4 0.4 0.4 0.4 0.4 0.4 0.4 0.4 0.4 0.4 0.4 0.4 0.4 0.4 0.4 
0.6 0.6 0.6 0.6 0.6 0.6 0.6 0.6 0.6 0.6 0.6 0.6 0.6 0.6 0.6 0.6 0.6 0.6 0.6 0.6 0.6 0.6 0.6 0.6 0.6 0.6 0.6 0.6 0.6 0.6 0.6 0.6 0.6 0.6 0.6 0.6 0.6 0.6 0.6 0.6 
0.8 0.8 0.8 0.8 0.8 0.8 0.8 0.8 0.8 0.8 0.8 0.8 0.8 0.8 0.8 0.8 0.8 0.8 0.8 0.8 0.8 0.8 0.8 0.8 0.8 0.8 0.8 0.8 0.8 0.8 0.8 0.8 0.8 0.8 0.8 0.8 0.8 0.8 0.8 0.8 
1 1 1 1 1 1 1 1 1 1 1 1 1 1 1 1 1 1 1 1 1 1 1 1 1 1 1 1 1 1 1 1 1 1 1 1 1 1 1 1 
